sat
(= |goto_symex::&92;guard#1| true)
(= |goto_symex::&92;guard#2| false)
(= |nondet_symex::nondet1| false)
(= |memory_model::choice_rf_1_22_0_10_T_0| true)
(= |memory_model::choice_rf_1_22_2_37_T_1| false)
(= |memory_model::choice_rf_1_22_3_20_T_2| false)
(= |memory_model::choice_rf_2_36_0_10_T_3| false)
(= |memory_model::choice_rf_2_36_1_23_T_4| true)
(= |memory_model::choice_rf_2_36_3_20_T_5| false)
(= |memory_model::choice_rf_3_19_0_10_T_6| false)
(= |memory_model::choice_rf_3_19_1_23_T_7| true)
(= |memory_model::choice_rf_3_19_2_37_T_8| false)
(= |memory_model::choice_rf_0_44_0_8_T_9| false)
(= |memory_model::choice_rf_0_44_0_40_T_10| true)
(= |memory_model::choice_rf_0_49_0_8_T_11| false)
(= |memory_model::choice_rf_0_49_0_40_T_12| false)
(= |memory_model::choice_rf_0_49_0_45_T_13| true)
(= |memory_model::choice_rf_0_61_0_20_F_14| false)
(= |memory_model::choice_rf_0_61_1_14_F_15| false)
(= |memory_model::choice_rf_0_61_2_33_F_16| true)
(= |memory_model::choice_rf_0_61_3_16_F_17| false)
(= |memory_model::choice_rf_1_7_0_20_F_18| true)
(= |memory_model::choice_rf_1_7_0_67_F_19| false)
(= |memory_model::choice_rf_1_7_2_33_F_20| false)
(= |memory_model::choice_rf_1_7_3_16_F_21| false)
(= |memory_model::choice_rf_2_26_0_20_F_22| false)
(= |memory_model::choice_rf_2_26_0_67_F_23| false)
(= |memory_model::choice_rf_2_26_1_14_F_24| false)
(= |memory_model::choice_rf_2_26_3_16_F_25| true)
(= |memory_model::choice_rf_3_9_0_20_F_26| false)
(= |memory_model::choice_rf_3_9_0_67_F_27| false)
(= |memory_model::choice_rf_3_9_1_14_F_28| true)
(= |memory_model::choice_rf_3_9_2_33_F_29| false)
(= |memory_model::choice_rf_0_53_0_11_F_30| false)
(= |memory_model::choice_rf_0_53_1_21_F_31| true)
(= |memory_model::choice_rf_0_53_2_35_F_32| false)
(= |memory_model::choice_rf_0_53_3_18_F_33| false)
(= |memory_model::choice_rf_1_20_0_11_F_34| false)
(= |memory_model::choice_rf_1_20_2_35_F_35| true)
(= |memory_model::choice_rf_1_20_3_18_F_36| false)
(= |memory_model::choice_rf_2_34_0_11_F_37| false)
(= |memory_model::choice_rf_2_34_1_21_F_38| false)
(= |memory_model::choice_rf_2_34_3_18_F_39| true)
(= |memory_model::choice_rf_3_17_0_11_F_40| true)
(= |memory_model::choice_rf_3_17_1_21_F_41| false)
(= |memory_model::choice_rf_3_17_2_35_F_42| false)
(= |memory_model::choice_rf_0_72_0_12_F_43| false)
(= |memory_model::choice_rf_0_72_1_10_F_44| true)
(= |memory_model::choice_rf_0_71_0_13_F_45| false)
(= |memory_model::choice_rf_0_71_2_21_F_46| true)
(= |memory_model::choice_rf_2_19_0_13_F_47| false)
(= |memory_model::choice_rf_0_70_0_14_F_48| false)
(= |memory_model::choice_rf_0_70_3_2_F_49| true)
(= |memory_model::choice_rf_0_69_0_15_F_50| false)
(= |memory_model::choice_rf_0_69_3_4_F_51| true)
(= |memory_model::choice_rf_0_55_0_16_F_52| false)
(= |memory_model::choice_rf_0_55_0_54_F_53| true)
(= |memory_model::choice_rf_0_68_0_17_F_54| false)
(= |memory_model::choice_rf_0_74_0_17_F_55| false)
(= |memory_model::choice_rf_0_74_0_73_F_56| true)
(= |memory_model::choice_rf_0_75_0_17_F_57| false)
(= |memory_model::choice_rf_0_75_0_73_F_58| true)
(= |memory_model::choice_rf_0_60_0_23_F_59| true)
(= |memory_model::choice_rf_2_5_0_23_F_60| true)
(= |memory_model::choice_rf_2_5_0_64_F_61| false)
(= |memory_model::choice_rf_1_5_0_24_F_62| true)
(= |memory_model::choice_rf_2_4_0_24_F_63| true)
(= |memory_model::choice_rf_2_4_1_9_F_64| false)
(= |memory_model::choice_rf_2_1_0_25_F_65| true)
(= |memory_model::choice_rf_2_25_0_25_F_66| false)
(= |memory_model::choice_rf_2_25_2_10_F_67| true)
(= |memory_model::choice_rf_2_0_0_26_F_68| true)
(= |memory_model::choice_rf_2_0_3_12_F_69| false)
(= |memory_model::choice_rf_3_8_0_26_F_70| true)
(= |memory_model::choice_rf_0_57_0_27_F_71| false)
(= |memory_model::choice_rf_0_57_2_12_F_72| true)
(= |memory_model::choice_rf_2_3_0_27_F_73| false)
(= |memory_model::choice_rf_2_3_0_63_F_74| false)
(= |memory_model::choice_rf_1_3_0_28_F_75| false)
(= |memory_model::choice_rf_1_3_2_11_F_76| true)
(= |memory_model::choice_rf_2_2_0_28_F_77| false)
(= |memory_model::choice_rf_2_2_1_8_F_78| false)
(= |memory_model::choice_rf_2_7_0_29_F_79| false)
(= |memory_model::choice_rf_2_27_0_29_F_80| false)
(= |memory_model::choice_rf_2_27_2_14_F_81| true)
(= |memory_model::choice_rf_2_6_0_30_F_82| false)
(= |memory_model::choice_rf_2_6_3_14_F_83| false)
(= |memory_model::choice_rf_3_10_0_30_F_84| false)
(= |memory_model::choice_rf_3_10_2_13_F_85| true)
(= |memory_model::choice_rf_0_59_0_33_F_86| false)
(= |memory_model::choice_rf_0_59_1_12_F_87| true)
(= |memory_model::choice_rf_0_59_2_17_F_88| false)
(= |memory_model::choice_rf_1_2_0_33_F_89| false)
(= |memory_model::choice_rf_1_2_2_17_F_90| true)
(= |memory_model::choice_rf_2_9_0_33_F_91| true)
(= |memory_model::choice_rf_2_9_1_12_F_92| false)
(= |memory_model::choice_rf_2_24_0_33_F_93| false)
(= |memory_model::choice_rf_2_24_1_12_F_94| true)
(= |memory_model::choice_rf_2_24_2_17_F_95| false)
(= |memory_model::choice_rf_3_7_0_33_F_96| false)
(= |memory_model::choice_rf_3_7_1_12_F_97| true)
(= |memory_model::choice_rf_3_7_2_17_F_98| false)
(= |memory_model::choice_rf_0_62_0_34_F_99| false)
(= |memory_model::choice_rf_0_62_1_13_F_100| false)
(= |memory_model::choice_rf_0_62_2_15_F_101| false)
(= |memory_model::choice_rf_0_62_2_32_F_102| true)
(= |memory_model::choice_rf_0_62_3_15_F_103| false)
(= |memory_model::choice_rf_1_6_0_34_F_104| false)
(= |memory_model::choice_rf_1_6_0_66_F_105| false)
(= |memory_model::choice_rf_1_6_2_15_F_106| true)
(= |memory_model::choice_rf_1_6_2_32_F_107| false)
(= |memory_model::choice_rf_1_6_3_15_F_108| false)
(= |memory_model::choice_rf_2_8_0_34_F_109| true)
(= |memory_model::choice_rf_2_8_0_66_F_110| false)
(= |memory_model::choice_rf_2_8_1_13_F_111| false)
(= |memory_model::choice_rf_2_8_3_15_F_112| false)
(= |memory_model::choice_rf_2_28_0_34_F_113| false)
(= |memory_model::choice_rf_2_28_0_66_F_114| false)
(= |memory_model::choice_rf_2_28_1_13_F_115| false)
(= |memory_model::choice_rf_2_28_2_15_F_116| false)
(= |memory_model::choice_rf_2_28_3_15_F_117| true)
(= |memory_model::choice_rf_3_11_0_34_F_118| false)
(= |memory_model::choice_rf_3_11_0_66_F_119| false)
(= |memory_model::choice_rf_3_11_1_13_F_120| true)
(= |memory_model::choice_rf_3_11_2_15_F_121| false)
(= |memory_model::choice_rf_3_11_2_32_F_122| false)
(= |memory_model::choice_rf_0_56_0_35_F_123| false)
(= |memory_model::choice_rf_0_56_1_11_F_124| true)
(= |memory_model::choice_rf_0_56_2_18_F_125| false)
(= |memory_model::choice_rf_1_1_0_35_F_126| false)
(= |memory_model::choice_rf_1_1_2_18_F_127| true)
(= |memory_model::choice_rf_2_22_0_35_F_128| false)
(= |memory_model::choice_rf_2_22_1_11_F_129| true)
(= |memory_model::choice_rf_2_22_2_18_F_130| false)
(= |memory_model::choice_rf_3_5_0_35_F_131| false)
(= |memory_model::choice_rf_3_5_1_11_F_132| true)
(= |memory_model::choice_rf_3_5_2_18_F_133| false)
(= |memory_model::choice_rf_0_58_0_36_F_134| false)
(= |memory_model::choice_rf_0_58_1_17_F_135| false)
(= |memory_model::choice_rf_0_58_2_16_F_136| false)
(= |memory_model::choice_rf_0_58_2_30_F_137| true)
(= |memory_model::choice_rf_0_58_3_13_F_138| false)
(= |memory_model::choice_rf_1_4_0_36_F_139| false)
(= |memory_model::choice_rf_1_4_0_65_F_140| false)
(= |memory_model::choice_rf_1_4_2_16_F_141| true)
(= |memory_model::choice_rf_1_4_2_30_F_142| false)
(= |memory_model::choice_rf_1_4_3_13_F_143| false)
(= |memory_model::choice_rf_2_23_0_36_F_144| false)
(= |memory_model::choice_rf_2_23_0_65_F_145| false)
(= |memory_model::choice_rf_2_23_1_17_F_146| false)
(= |memory_model::choice_rf_2_23_2_16_F_147| false)
(= |memory_model::choice_rf_2_23_3_13_F_148| true)
(= |memory_model::choice_rf_3_6_0_36_F_149| false)
(= |memory_model::choice_rf_3_6_0_65_F_150| false)
(= |memory_model::choice_rf_3_6_1_17_F_151| true)
(= |memory_model::choice_rf_3_6_2_16_F_152| false)
(= |memory_model::choice_rf_3_6_2_30_F_153| false)
(= |memory_model::choice_rf_2_20_0_37_F_154| true)
(= |memory_model::choice_rf_2_20_3_0_F_155| false)
(= |memory_model::choice_rf_3_1_0_37_F_156| false)
(= |memory_model::choice_rf_3_1_3_0_F_157| true)
(= |memory_model::choice_rf_3_3_0_38_F_158| true)
(= |memory_model::choice_rf_3_3_1_0_F_159| false)
(= |memory_model::choice_ws-ext_0_10_1_23_T_160| true)
(= |memory_model::choice_ws-ext_0_10_2_37_T_161| true)
(= |memory_model::choice_ws-ext_0_10_3_20_T_162| true)
(= |memory_model::choice_ws-ext_1_23_2_37_T_163| true)
(= |memory_model::choice_ws-ext_1_23_3_20_T_164| true)
(= |memory_model::choice_ws-ext_2_37_3_20_T_165| false)
(= |memory_model::choice_ws-ext_0_20_1_14_F_166| true)
(= |memory_model::choice_ws-ext_0_20_2_33_F_167| true)
(= |memory_model::choice_ws-ext_0_20_3_16_F_168| true)
(= |memory_model::choice_ws-ext_0_67_1_14_F_169| false)
(= |memory_model::choice_ws-ext_0_67_2_33_F_170| false)
(= |memory_model::choice_ws-ext_0_67_3_16_F_171| false)
(= |memory_model::choice_ws-ext_1_14_2_33_F_172| true)
(= |memory_model::choice_ws-ext_1_14_3_16_F_173| true)
(= |memory_model::choice_ws-ext_2_33_3_16_F_174| false)
(= |memory_model::choice_ws-ext_0_11_1_21_F_175| true)
(= |memory_model::choice_ws-ext_0_11_2_35_F_176| true)
(= |memory_model::choice_ws-ext_0_11_3_18_F_177| true)
(= |memory_model::choice_ws-ext_1_21_2_35_F_178| false)
(= |memory_model::choice_ws-ext_1_21_3_18_F_179| false)
(= |memory_model::choice_ws-ext_2_35_3_18_F_180| false)
(= |memory_model::choice_ws-ext_0_12_1_10_F_181| true)
(= |memory_model::choice_ws-ext_0_13_2_21_F_182| true)
(= |memory_model::choice_ws-ext_0_14_3_2_F_183| true)
(= |memory_model::choice_ws-ext_0_15_3_4_F_184| true)
(= |memory_model::choice_ws-ext_0_21_1_16_F_185| true)
(= |memory_model::choice_ws-ext_0_22_1_15_F_186| true)
(= |memory_model::choice_ws-ext_0_24_1_9_F_187| true)
(= |memory_model::choice_ws-ext_0_25_2_10_F_188| true)
(= |memory_model::choice_ws-ext_0_25_2_29_F_189| true)
(= |memory_model::choice_ws-ext_0_26_3_12_F_190| true)
(= |memory_model::choice_ws-ext_0_27_2_12_F_191| true)
(= |memory_model::choice_ws-ext_0_63_2_12_F_192| false)
(= |memory_model::choice_ws-ext_0_28_1_8_F_193| true)
(= |memory_model::choice_ws-ext_0_28_2_11_F_194| true)
(= |memory_model::choice_ws-ext_1_8_2_11_F_195| false)
(= |memory_model::choice_ws-ext_0_29_2_14_F_196| true)
(= |memory_model::choice_ws-ext_0_29_2_31_F_197| true)
(= |memory_model::choice_ws-ext_0_30_2_13_F_198| true)
(= |memory_model::choice_ws-ext_0_30_3_14_F_199| true)
(= |memory_model::choice_ws-ext_2_13_3_14_F_200| true)
(= |memory_model::choice_ws-ext_0_33_1_12_F_201| true)
(= |memory_model::choice_ws-ext_0_33_2_17_F_202| true)
(= |memory_model::choice_ws-ext_1_12_2_17_F_203| false)
(= |memory_model::choice_ws-ext_0_34_1_13_F_204| true)
(= |memory_model::choice_ws-ext_0_34_2_15_F_205| true)
(= |memory_model::choice_ws-ext_0_34_2_32_F_206| true)
(= |memory_model::choice_ws-ext_0_34_3_15_F_207| true)
(= |memory_model::choice_ws-ext_0_66_1_13_F_208| false)
(= |memory_model::choice_ws-ext_0_66_2_15_F_209| false)
(= |memory_model::choice_ws-ext_0_66_2_32_F_210| false)
(= |memory_model::choice_ws-ext_0_66_3_15_F_211| false)
(= |memory_model::choice_ws-ext_1_13_2_15_F_212| false)
(= |memory_model::choice_ws-ext_1_13_2_32_F_213| true)
(= |memory_model::choice_ws-ext_1_13_3_15_F_214| true)
(= |memory_model::choice_ws-ext_2_15_3_15_F_215| true)
(= |memory_model::choice_ws-ext_2_32_3_15_F_216| false)
(= |memory_model::choice_ws-ext_0_35_1_11_F_217| true)
(= |memory_model::choice_ws-ext_0_35_2_18_F_218| true)
(= |memory_model::choice_ws-ext_1_11_2_18_F_219| false)
(= |memory_model::choice_ws-ext_0_36_1_17_F_220| true)
(= |memory_model::choice_ws-ext_0_36_2_16_F_221| true)
(= |memory_model::choice_ws-ext_0_36_2_30_F_222| true)
(= |memory_model::choice_ws-ext_0_36_3_13_F_223| true)
(= |memory_model::choice_ws-ext_0_65_1_17_F_224| false)
(= |memory_model::choice_ws-ext_0_65_2_16_F_225| false)
(= |memory_model::choice_ws-ext_0_65_2_30_F_226| false)
(= |memory_model::choice_ws-ext_0_65_3_13_F_227| false)
(= |memory_model::choice_ws-ext_1_17_2_16_F_228| false)
(= |memory_model::choice_ws-ext_1_17_2_30_F_229| true)
(= |memory_model::choice_ws-ext_1_17_3_13_F_230| true)
(= |memory_model::choice_ws-ext_2_16_3_13_F_231| true)
(= |memory_model::choice_ws-ext_2_30_3_13_F_232| false)
(= |memory_model::choice_ws-ext_0_37_3_0_F_233| true)
(= |memory_model::choice_ws-ext_0_38_1_0_F_234| true)
(= |memory_model::choice_ws-ext_0_18_1_19_F_235| true)
(= |memory_model::choice_ws-ext_0_19_1_18_F_236| true)
(= |main$tmp_guard0#3| #b00000001)
(= |__CPROVER_next_thread_id#3| #b00000000000000000000000000000001)
(= |__CPROVER_next_thread_id#6| #b00000000000000000000000000000010)
(= |__unbuffered_cnt#2| #b00000000000000000000000000000011)
(= |x$w_buff0_used#2| #b00000000)
(= |x$r_buff0_thd0#2| #b00000000)
(= |x$w_buff0#2| #b00000000000000000000000000000001)
(= |x$w_buff1_used#2| #b00000000)
(= |x$r_buff1_thd0#2| #b00000000)
(= |x$w_buff1#2| #b00000000000000000000000000000000)
(= |x#2| #b00000000000000000000000000000001)
(= |x#4| #b00000000000000000000000000000001)
(= |x$w_buff0_used#6| #b00000000)
(= |x$w_buff1_used#6| #b00000000)
(= |x$r_buff0_thd0#8| #b00000000)
(= |x$r_buff1_thd0#7| #b00000000)
(= |__unbuffered_p0_EAX#2| #b00000000000000000000000000000000)
(= |__unbuffered_p1_EAX#2| #b00000000000000000000000000000000)
(= |__unbuffered_p2_EAX#2| #b00000000000000000000000000000001)
(= |__unbuffered_p2_EBX#2| #b00000000000000000000000000000000)
(= |main$tmp_guard1#2| #b00000000)
(= |main$tmp_guard1#3| #b00000000)
(= |main$tmp_guard1#6| #b00000000)
(= |pthread_create::1::this_thread_id!1@0#0| #b01000000000000000000000000000000)
(= |x#6| #b00000000000000000000000000000000)
(= |x$w_buff0_used#11| #b00000001)
(= |x$r_buff0_thd1#2| #b00000000)
(= |x$w_buff1_used#9| #b00000000)
(= |x$r_buff1_thd1#2| #b00000000)
(= |x$w_buff0#4| #b00000000000000000000000000000001)
(= |x$w_buff1#4| #b00000000000000000000000000000000)
(= |__unbuffered_cnt#4| #b00000000000000000000000000000010)
(= |pthread_create::1::this_thread_id!2@0#0| #b00000000000000000000000000000000)
(= |x$w_buff0#7| #b00000000000000000000000000000000)
(= |x$w_buff0_used#14| #b00000000)
(= |x$r_buff0_thd0#11| #b00000000)
(= |x$r_buff1_thd0#9| #b00000000)
(= |x$r_buff1_thd0#10| #b10000000)
(= |x$r_buff0_thd1#5| #b00000000)
(= |x$r_buff1_thd1#5| #b00000000)
(= |x$r_buff1_thd1#6| #b10000000)
(= |x$r_buff0_thd2#2| #b00000000)
(= |x$r_buff1_thd2#2| #b00000000)
(= |x$r_buff1_thd2#3| #b10000000)
(= |x$r_buff0_thd3#2| #b00000000)
(= |x$r_buff1_thd3#2| #b00000000)
(= |x$r_buff1_thd3#3| #b10000000)
(= |x$r_buff0_thd2#4| #b00000001)
(= |y#2| #b00000000000000000000000000000000)
(= |__unbuffered_p1_EAX#4| #b00000000000000000000000000000000)
(= |__unbuffered_p1_EAX#5| #b10000000000000000000000000000000)
(= |x$w_buff0_used#17| #b00000001)
(= |x$r_buff0_thd2#6| #b00000001)
(= |x$w_buff0#10| #b00000000000000000000000000000001)
(= |x$w_buff1_used#13| #b00000000)
(= |x$r_buff1_thd2#5| #b00000000)
(= |x$w_buff1#8| #b00000000000000000000000000000000)
(= |x#10| #b00000000000000000000000000000000)
(= |x#12| #b00000000000000000000000000000001)
(= |x$w_buff0_used#21| #b00000000)
(= |x$w_buff1_used#17| #b00000000)
(= |x$r_buff0_thd2#12| #b00000001)
(= |x$r_buff1_thd2#10| #b00000000)
(= |__unbuffered_cnt#7| #b00000000000000000000000000000001)
(= |__unbuffered_cnt#9| #b00000000000000000000000000000010)
(= |pthread_create::1::this_thread_id!3@0#0| #b10000000000000000000000000000000)
(= |y#5| #b00000000000000000000000000000001)
(= |z#3| #b00000000000000000000000000000000)
(= |x$w_buff0_used#26| #b00000001)
(= |x$r_buff0_thd3#4| #b00000000)
(= |x$w_buff0#12| #b00000000000000000000000000000001)
(= |x$w_buff1_used#20| #b00000000)
(= |x$r_buff1_thd3#5| #b00000000)
(= |x$w_buff1#10| #b00000000000000000000000000000000)
(= |x#14| #b00000000000000000000000000000000)
(= |__unbuffered_cnt#11| #b00000000000000000000000000000000)
(= |__CPROVER_threads_exited#1$wclk$8| #b00011010)
(= |__CPROVER_threads_exited#2$rclk$8| #b11111010)
(= |__CPROVER_threads_exited#5$wclk$8| #b11111111)
(= |__CPROVER_threads_exited#7$wclk$8| #b11111110)
(= |__CPROVER_threads_exited#4$rclk$8| #b11111100)
(= |__CPROVER_threads_exited#3$wclk$8| #b11111011)
(= |__CPROVER_threads_exited#6$rclk$8| #b11111101)
(= |x#9$wclk$8| #b01110010)
(= |x#2$rclk$8| #b11110111)
(= |x#13$wclk$8| #b01110100)
(= |x#16$wclk$8| #b01110011)
(= |x#1$wclk$8| #b00101010)
(= |x#6$rclk$8| #b01110010)
(= |x#5$wclk$8| #b11110111)
(= |x#10$rclk$8| #b01110100)
(= |x#14$rclk$8| #b01110011)
(= |__unbuffered_cnt#6$wclk$8| #b01111010)
(= |__unbuffered_cnt#2$rclk$8| #b01111101)
(= |__unbuffered_cnt#10$wclk$8| #b01110101)
(= |__unbuffered_cnt#13$wclk$8| #b01110100)
(= |__unbuffered_cnt#1$wclk$8| #b00011011)
(= |__unbuffered_cnt#4$rclk$8| #b01111010)
(= |__unbuffered_cnt#7$rclk$8| #b01110101)
(= |__unbuffered_cnt#11$rclk$8| #b01110100)
(= |__unbuffered_p0_EAX#4$wclk$8| #b01110010)
(= |__unbuffered_p0_EAX#2$rclk$8| #b11111011)
(= |__unbuffered_p1_EAX#6$wclk$8| #b01011010)
(= |__unbuffered_p1_EAX#2$rclk$8| #b11111011)
(= |__unbuffered_p1_EAX#1$wclk$8| #b00100001)
(= |__unbuffered_p1_EAX#5$rclk$8| #b01011010)
(= |__unbuffered_p2_EAX#4$wclk$8| #b01100001)
(= |__unbuffered_p2_EAX#2$rclk$8| #b11111011)
(= |__unbuffered_p2_EBX#4$wclk$8| #b01110000)
(= |__unbuffered_p2_EBX#2$rclk$8| #b11111011)
(= |main$tmp_guard1#5| #b00000000)
(= |x$r_buff0_thd0#1$wclk$8| #b00101110)
(= |x$r_buff0_thd0#11$rclk$8| #b01010111)
(= |x$r_buff0_thd0#10$wclk$8| #b11110111)
(= |x$r_buff0_thd1#1$wclk$8| #b00110001)
(= |x$r_buff0_thd1#2$rclk$8| #b01110010)
(= |x$r_buff0_thd1#5$rclk$8| #b01010111)
(= |x$r_buff0_thd1#4$wclk$8| #b01110010)
(= |x$r_buff0_thd2#1$wclk$8| #b00110010)
(= |x$r_buff0_thd2#2$rclk$8| #b01010111)
(= |x$r_buff0_thd2#6$rclk$8| #b01110100)
(= |x$r_buff0_thd3#1$wclk$8| #b00110011)
(= |x$r_buff0_thd3#2$rclk$8| #b01010111)
(= |x$r_buff0_thd3#6$wclk$8| #b01110011)
(= |x$r_buff0_thd3#4$rclk$8| #b01110011)
(= |x$r_buff1_thd0#11$wclk$8| #b01010111)
(= |x$r_buff1_thd0#2$rclk$8| #b11110111)
(= |x$r_buff1_thd0#1$wclk$8| #b00110100)
(= |x$r_buff1_thd0#10$rclk$8| #b01010111)
(= |x$r_buff1_thd0#8$wclk$8| #b11110111)
(= |x$r_buff1_thd1#1$wclk$8| #b00110101)
(= |x$r_buff1_thd1#2$rclk$8| #b01110010)
(= |x$r_buff1_thd1#7$wclk$8| #b01010111)
(= |x$r_buff1_thd1#6$rclk$8| #b01010111)
(= |x$r_buff1_thd1#4$wclk$8| #b01110010)
(= |x$r_buff1_thd2#1$wclk$8| #b00110110)
(= |x$r_buff1_thd2#3$rclk$8| #b01010111)
(= |x$r_buff1_thd2#5$rclk$8| #b01110100)
(= |x$r_buff1_thd3#1$wclk$8| #b00110111)
(= |x$r_buff1_thd3#3$rclk$8| #b01010111)
(= |x$r_buff1_thd3#7$wclk$8| #b01110011)
(= |x$r_buff1_thd3#5$rclk$8| #b01110011)
(= |x$r_buff1_thd3#4$wclk$8| #b01010111)
(= |x$w_buff0#6$wclk$8| #b01110010)
(= |x$w_buff0#2$rclk$8| #b11110111)
(= |x$w_buff0#9$wclk$8| #b01010111)
(= |x$w_buff0#1$wclk$8| #b00111010)
(= |x$w_buff0#4$rclk$8| #b01110010)
(= |x$w_buff0#7$rclk$8| #b01010111)
(= |x$w_buff0#10$rclk$8| #b01110100)
(= |x$w_buff0#12$rclk$8| #b01110011)
(= |x$w_buff0_used#13$wclk$8| #b01110010)
(= |x$w_buff0_used#2$rclk$8| #b11110111)
(= |x$w_buff0_used#16$wclk$8| #b01010111)
(= |x$w_buff0_used#25$wclk$8| #b01110100)
(= |x$w_buff0_used#28$wclk$8| #b01110011)
(= |x$w_buff0_used#1$wclk$8| #b00111011)
(= |x$w_buff0_used#11$rclk$8| #b01110010)
(= |x$w_buff0_used#10$wclk$8| #b11110111)
(= |x$w_buff0_used#14$rclk$8| #b01010111)
(= |x$w_buff0_used#17$rclk$8| #b01110100)
(= |x$w_buff0_used#26$rclk$8| #b01110011)
(= |x$w_buff1#6$wclk$8| #b01110010)
(= |x$w_buff1#2$rclk$8| #b11110111)
(= |x$w_buff1#7$wclk$8| #b01010111)
(= |x$w_buff1#1$wclk$8| #b00111100)
(= |x$w_buff1#4$rclk$8| #b01110010)
(= |x$w_buff1#8$rclk$8| #b01110100)
(= |x$w_buff1#10$rclk$8| #b01110011)
(= |x$w_buff1_used#11$wclk$8| #b01110010)
(= |x$w_buff1_used#2$rclk$8| #b11110111)
(= |x$w_buff1_used#12$wclk$8| #b01010111)
(= |x$w_buff1_used#19$wclk$8| #b01110100)
(= |x$w_buff1_used#22$wclk$8| #b01110011)
(= |x$w_buff1_used#1$wclk$8| #b00111101)
(= |x$w_buff1_used#9$rclk$8| #b01110010)
(= |x$w_buff1_used#8$wclk$8| #b11110111)
(= |x$w_buff1_used#13$rclk$8| #b01110100)
(= |x$w_buff1_used#20$rclk$8| #b01110011)
(= |y#1$wclk$8| #b00111110)
(= |y#2$rclk$8| #b01011010)
(= |y#4$wclk$8| #b01011111)
(= |y#5$rclk$8| #b01100001)
(= |z#1$wclk$8| #b00111111)
(= |z#3$rclk$8| #b01110000)
(= |z#2$wclk$8| #b01110001)
(= |__unbuffered_p0_EAX#1$wclk$8| #b00100000)
(= |__unbuffered_p2_EAX#1$wclk$8| #b00100010)
(= |__unbuffered_p2_EBX#1$wclk$8| #b00100011)
(= |x$flush_delayed#1$wclk$8| #b00101100)
(= |x$flush_delayed#3$wclk$8| #b01110010)
(= |x$mem_tmp#1$wclk$8| #b00101101)
(= |x$mem_tmp#2$wclk$8| #b01110010)
(= |x$r_buff0_thd2#5$wclk$8| #b01010111)
(= |x$r_buff0_thd2#14$wclk$8| #b01110100)
(= |x$r_buff1_thd2#4$wclk$8| #b01010111)
(= |x$r_buff1_thd2#11$wclk$8| #b01110100)
(= |weak$$choice0#1$wclk$8| #b00101000)
(= |weak$$choice0#2$wclk$8| #b01110010)
(= |weak$$choice2#1$wclk$8| #b00101001)
(= |weak$$choice2#2$wclk$8| #b01110010)
(= t1$42$spwnclk$8 #b01000100)
(= t1$47$spwnclk$8 #b01010110)
(= t1$52$spwnclk$8 #b01011110)
(= |main::1::t427!0@1$wclk$8| #b00000000)
(= |main::1::t428!0@1$wclk$8| #b00000010)
(= |__CPROVER_dead_object#1$wclk$8| #b00001001)
(= |__CPROVER_deallocated#1$wclk$8| #b00001010)
(= |__CPROVER_malloc_is_new_array#1$wclk$8| #b00001011)
(= |__CPROVER_malloc_object#1$wclk$8| #b00001101)
(= |__CPROVER_malloc_size#1$wclk$8| #b00001110)
(= |__CPROVER_memory_leak#1$wclk$8| #b00001111)
(= |__CPROVER_next_thread_id#1$wclk$8| #b00011000)
(= |__CPROVER_pipe_count#1$wclk$8| #b00011001)
(= |main$tmp_guard0#1$wclk$8| #b00100101)
(= |main$tmp_guard1#1$wclk$8| #b00100110)
(= |x$read_delayed#1$wclk$8| #b00111000)
(= |x$read_delayed_var#1$wclk$8| #b00111001)
(= |main::1::t426!0@1#1$wclk$8| #b01000001)
(= |__CPROVER_next_thread_id#2$wclk$8| #b01000010)
(= |main::1::t426!0@1#2$wclk$8| #b01000011)
(= |main::1::t427!0@1#1$wclk$8| #b01000101)
(= |__CPROVER_next_thread_id#3$rclk$8| #b01000110)
(= |__CPROVER_next_thread_id#5$wclk$8| #b01000110)
(= |main::1::t427!0@1#2$wclk$8| #b01000111)
(= |main::1::t428!0@1#1$wclk$8| #b01010111)
(= |__CPROVER_next_thread_id#6$rclk$8| #b01011100)
(= |__CPROVER_next_thread_id#8$wclk$8| #b01011100)
(= |main::1::t428!0@1#2$wclk$8| #b01011101)
(= |main$tmp_guard0#2$wclk$8| #b01111101)
(= |main$tmp_guard0#3$rclk$8| #b11011111)
(= |x$r_buff0_thd0#2$rclk$8| #b11110111)
(= |main$tmp_guard1#3$rclk$8| #b11111011)
(= |main$tmp_guard1#4$wclk$8| #b11111011)
(= |main$tmp_guard1#5$rclk$8| #b11111100)
(= |main$tmp_guard1#6$rclk$8| #b11111101)
(= array_of.0 @fun_11)
(= |__CPROVER_threads_exited#2| @fun_11)
(= |__CPROVER_threads_exited#4| @fun_11)
(= |__CPROVER_threads_exited#6| @fun_11)
(function @fun_11
 (type (Array (_ BitVec 32) (_ BitVec 1)))
 (= (@fun_11 #b00000000000000000000000000000000) #b0)
 (default #b1))

real	0m0.023s
user	0m0.020s
sys	0m0.003s
State: AC Run_time: 0.025517940521240234